&CONTROL
  calculation = 'scf'
  outdir = './out/'
  prefix = 'CeO2'
  pseudo_dir = './pseudo/'
/
&SYSTEM
  degauss =   0.01
  ecutrho =   400
  ecutwfc =   50
  ibrav = 0
  nat = 24
  nosym = .False.
  ntyp = 2
  occupations = 'smearing'
  smearing = 'mp'
/
&ELECTRONS
  conv_thr =   1.0d-4
  electron_maxstep = 40
  mixing_beta =   0.4
/
ATOMIC_SPECIES
Ce     140.116 Ce.GGA-PBE-paw-v1.0.UPF
O      15.9994 O.pbe-n-kjpaw_psl.0.1.UPF
ATOMIC_POSITIONS crystal
Ce           0.0000000000       0.0000000000       0.0000000000 
Ce          -0.0000000000      -0.0000000000       0.5000000000 
Ce          -0.0000000000       0.5000000000       0.0000000000 
Ce          -0.0000000000       0.5000000000       0.5000000000 
Ce           0.5000000000       0.0000000000       0.0000000000 
Ce           0.5000000000      -0.0000000000       0.5000000000 
Ce           0.5000000000       0.5000000000       0.0000000000 
Ce           0.5000000000       0.5000000000       0.5000000000 
O            0.3750000000       0.3750000000       0.3750000000 
O            0.3750000000       0.3750000000       0.8750000000 
O            0.3750000000       0.8750000000       0.3750000000 
O            0.3750000000       0.8750000000       0.8750000000 
O            0.8750000000       0.3750000000       0.3750000000 
O            0.8750000000       0.3750000000       0.8750000000 
O            0.8750000000       0.8750000000       0.3750000000 
O            0.8750000000       0.8750000000       0.8750000000 
O            0.1250000000       0.1250000000       0.1250000000 
O            0.1250000000       0.1250000000       0.6250000000 
O            0.1250000000       0.6250000000       0.1250000000 
O            0.1250000000       0.6250000000       0.6250000000 
O            0.6250000000       0.1250000000       0.1250000000 
O            0.6250000000       0.1250000000       0.6250000000 
O            0.6250000000       0.6250000000       0.1250000000 
O            0.6250000000       0.6250000000       0.6250000000 
K_POINTS automatic
4 4 4 1 0 0
CELL_PARAMETERS angstrom
      7.7321419716       0.0000000000       0.0000000000
      3.8660705400       6.6962316305       0.0000000000
      3.8660705400       2.2320770386       6.3132677864
